benchmarks/or-tools/instances/pigeonsplus/pigeonsPlus-6-10.res
GECODE_TUPLESET_MEM
GECODE_TUPLESET_MEM
GECODE_TUPLESET_MEM
GECODE_TUPLESET_MEM
GECODE_TUPLESET_MEM
GECODE_TUPLESET_MEM
GECODE_TUPLESET_MEM
GECODE_TUPLESET_MEM
GECODE_TUPLESET_MEM
GECODE_TUPLESET_MEM
GECODE_TUPLESET_MEM
GECODE_TUPLESET_MEM
GECODE_TUPLESET_MEM
GECODE_TUPLESET_MEM
GECODE_TUPLESET_MEM
GECODE_TUPLESET_MEM
GECODE_TUPLESET_MEM
GECODE_TUPLESET_MEM
GECODE_TUPLESET_MEM
GECODE_TUPLESET_MEM
GECODE_TUPLESET_MEM
GECODE_TUPLESET_MEM
GECODE_TUPLESET_MEM
GECODE_TUPLESET_MEM
GECODE_TUPLESET_MEM
GECODE_TUPLESET_MEM
GECODE_TUPLESET_MEM
=====UNKNOWN=====

%%  runtime:       3:54:13.404 (14053404.032 ms)
%%  solvetime:     32:07.860 (1927860.017 ms)
%%  solutions:     0
%%  variables:     66
%%  propagators:   27
%%  propagations:  366
%%  nodes:         28
%%  failures:      12
%%  restarts:      0
%%  peak depth:    7

GECODE_TUPLESET_SPEED
GECODE_TUPLESET_SPEED
GECODE_TUPLESET_SPEED
GECODE_TUPLESET_SPEED
GECODE_TUPLESET_SPEED
GECODE_TUPLESET_SPEED
GECODE_TUPLESET_SPEED
GECODE_TUPLESET_SPEED
GECODE_TUPLESET_SPEED
GECODE_TUPLESET_SPEED
GECODE_TUPLESET_SPEED
GECODE_TUPLESET_SPEED
GECODE_TUPLESET_SPEED
GECODE_TUPLESET_SPEED
GECODE_TUPLESET_SPEED
GECODE_TUPLESET_SPEED
GECODE_TUPLESET_SPEED
GECODE_TUPLESET_SPEED
GECODE_TUPLESET_SPEED
GECODE_TUPLESET_SPEED
GECODE_TUPLESET_SPEED
GECODE_TUPLESET_SPEED
GECODE_TUPLESET_SPEED
GECODE_TUPLESET_SPEED
GECODE_TUPLESET_SPEED
GECODE_TUPLESET_SPEED
GECODE_TUPLESET_SPEED
=====UNKNOWN=====

%%  runtime:       8:14:42.456 (29682456.805 ms)
%%  solvetime:     16:40.547 (1000547.755 ms)
%%  solutions:     0
%%  variables:     66
%%  propagators:   27
%%  propagations:  5325
%%  nodes:         578
%%  failures:      288
%%  restarts:      0
%%  peak depth:    9

COMPACT_TABLE
COMPACT_TABLE
COMPACT_TABLE
COMPACT_TABLE
COMPACT_TABLE
COMPACT_TABLE
COMPACT_TABLE
COMPACT_TABLE
COMPACT_TABLE
COMPACT_TABLE
COMPACT_TABLE
COMPACT_TABLE
COMPACT_TABLE
COMPACT_TABLE
COMPACT_TABLE
COMPACT_TABLE
COMPACT_TABLE
COMPACT_TABLE
COMPACT_TABLE
COMPACT_TABLE
COMPACT_TABLE
COMPACT_TABLE
COMPACT_TABLE
COMPACT_TABLE
COMPACT_TABLE
COMPACT_TABLE
COMPACT_TABLE
=====UNSATISFIABLE=====

%%  runtime:       40:44.287 (2444287.005 ms)
%%  solvetime:     8.876 (8876.305 ms)
%%  solutions:     0
%%  variables:     66
%%  propagators:   27
%%  propagations:  14344
%%  nodes:         1919
%%  failures:      960
%%  restarts:      0
%%  peak depth:    9

